0 229 
1 236 
2 244 
3 246 
4 251 
5 251 
6 252 
7 252 
8 252 
9 253 
10 252 
11 251 
12 252 
13 251 
14 251 
15 251 
16 252 
17 253 
18 252 
19 252 
20 251 
21 249 
22 248 
23 248 
24 247 
25 245 
26 245 
27 244 
28 242 
29 241 
30 241 
31 241 
32 241 
33 241 
34 246 
35 247 
36 247 
37 247 
38 247 
39 247 
40 247 
41 247 
42 246 
43 245 
44 244 
45 244 
46 243 
47 241 
48 240 
49 242 
50 242 
51 241 
52 240 
53 239 
54 239 
55 243 
56 245 
57 244 
58 243 
59 242 
60 241 
61 240 
62 239 
63 237 
64 236 
65 236 
66 235 
67 235 
68 235 
69 237 
70 238 
71 237 
72 237 
73 236 
74 236 
75 235 
76 236 
77 235 
78 234 
79 232 
80 231 
81 230 
82 230 
83 231 
84 230 
85 230 
86 229 
87 228 
88 228 
89 227 
90 226 
91 225 
92 223 
93 222 
94 224 
95 223 
96 225 
97 224 
98 224 
99 222 
100 221 
101 220 
102 221 
103 220 
104 219 
105 221 
106 223 
107 224 
108 223 
109 223 
110 228 
111 232 
112 233 
113 232 
114 231 
115 231 
116 231 
117 231 
118 231 
119 231 
120 232 
121 232 
122 231 
123 230 
124 230 
125 229 
126 228 
127 226 
128 224 
129 224 
130 223 
131 223 
132 222 
133 221 
134 221 
135 220 
136 219 
137 219 
138 220 
139 221 
140 220 
141 220 
142 220 
143 220 
144 218 
145 218 
146 220 
147 220 
148 220 
149 219 
150 217 
151 219 
152 218 
153 219 
154 218 
155 217 
156 215 
157 214 
158 212 
159 210 
160 210 
161 210 
162 210 
163 209 
164 208 
165 209 
166 209 
167 208 
168 210 
169 210 
170 209 
171 208 
172 206 
173 205 
174 203 
175 202 
176 201 
177 200 
178 199 
179 198 
180 199 
181 202 
182 202 
183 204 
184 203 
185 202 
186 201 
187 200 
188 199 
189 199 
190 198 
191 197 
192 198 
193 198 
194 198 
195 196 
196 195 
197 195 
198 194 
199 194 
200 194 
201 194 
202 194 
203 193 
204 194 
205 193 
206 192 
207 192 
208 193 
209 196 
210 195 
211 194 
212 194 
213 193 
214 192 
215 192 
216 190 
217 188 
218 186 
219 185 
220 184 
221 184 
222 183 
223 182 
224 182 
225 181 
226 180 
227 179 
228 178 
229 177 
230 177 
231 176 
232 177 
233 177 
234 176 
235 175 
236 176 
237 176 
238 176 
239 175 
240 174 
241 172 
242 172 
243 174 
244 173 
245 172 
246 172 
247 171 
248 171 
249 171 
250 170 
251 169 
252 167 
253 167 
254 166 
255 165 
256 166 
257 166 
258 166 
259 164 
260 163 
261 162 
262 163 
263 163 
264 163 
265 162 
266 162 
267 161 
268 160 
269 158 
270 158 
271 157 
272 159 
273 159 
274 159 
275 158 
276 157 
277 156 
278 155 
279 154 
280 154 
281 153 
282 153 
283 153 
284 152 
285 152 
286 153 
287 151 
288 150 
289 149 
290 148 
291 147 
292 147 
293 146 
294 144 
295 149 
296 149 
297 148 
298 146 
299 147 
300 148 
301 150 
302 151 
303 151 
304 151 
305 151 
306 149 
307 148 
308 146 
309 146 
310 145 
311 145 
312 144 
313 145 
314 144 
315 146 
316 144 
317 143 
318 141 
319 141 
320 140 
321 139 
322 138 
323 139 
324 139 
325 138 
326 136 
327 136 
328 135 
329 133 
330 134 
331 133 
332 132 
333 131 
334 131 
335 131 
336 132 
337 130 
338 129 
339 128 
340 127 
341 126 
342 125 
343 124 
344 123 
345 122 
346 121 
347 120 
348 120 
349 119 
350 119 
351 120 
352 119 
353 119 
354 118 
355 116 
356 120 
357 119 
358 118 
359 118 
360 118 
361 119 
362 120 
363 119 
364 119 
365 118 
366 116 
367 116 
368 116 
369 116 
370 116 
371 115 
372 115 
373 115 
374 114 
375 113 
376 114 
377 115 
378 114 
379 112 
380 112 
381 111 
382 110 
383 109 
384 108 
385 108 
386 107 
387 108 
388 108 
389 109 
390 108 
391 108 
392 107 
393 106 
394 104 
395 103 
396 104 
397 103 
398 102 
399 103 
400 102 
401 100 
402 100 
403 100 
404 100 
405 100 
406 100 
407 101 
408 100 
409 98 
410 96 
411 96 
412 98 
413 97 
414 97 
415 96 
416 95 
417 96 
418 95 
419 94 
420 94 
421 96 
422 98 
423 97 
424 96 
425 96 
426 95 
427 94 
428 92 
429 92 
430 93 
431 95 
432 95 
433 94 
434 93 
435 91 
436 89 
437 90 
438 87 
439 88 
440 87 
441 86 
442 83 
443 84 
444 84 
445 83 
446 81 
447 79 
448 78 
449 79 
450 78 
451 77 
452 77 
453 75 
454 73 
455 71 
456 67 
457 66 
458 65 
459 66 
460 66 
461 65 
462 63 
463 61 
464 58 
465 59 
466 57 
467 55 
468 55 
469 55 
470 54 
471 52 
472 54 
473 54 
474 52 
475 51 
476 51 
477 49 
478 47 
479 46 
480 46 
481 45 
482 41 
483 41 
484 40 
485 39 
486 40 
487 39 
488 38 
489 34 
490 32 
491 29 
492 27 
493 28 
494 32 
495 32 
496 31 
497 31 
498 31 
499 30 
500 31 
501 28 
502 28 
503 26 
504 25 
505 24 
506 23 
507 23 
508 23 
509 21 
510 20 
511 20 
512 18 
513 18 
514 17 
515 17 
516 16 
517 16 
518 16 
519 14 
520 11 
521 8 
522 9 
523 10 
524 9 
525 9 
526 8 
527 6 
528 5 
529 6 
530 6 
531 5 
532 5 
533 4 
534 3 
535 3 
536 4 
537 3 
538 1 
539 0 
540 0 

